302507
302507
302507
302507
302507
302335
302335
302335
302335
296874
296874
296874
296874
296384
291758
287427
287427
287427
287427
287427
280934
280934
280934
279512
279512
279512
279512
279512
279512
279512
279512
279239
279239
271574
271574
271574
264496
264496
264496
264496
264496
263872
263872
263872
263872
263872
263826
262363
262363
262363
262363
262363
258342
258342
256966
256966
256966
256966
254367
254367
254367
254367
254367
254367
254367
254367
246321
246321
246321
246321
246321
246321
246321
246321
246321
246321
246321
246321
246321
246321
240327
240327
240327
240327
240327
240327
240327
240327
240327
240327
240327
240327
240327
240327
240327
240327
240327
240327
240327
239255
